outputs/case_47.model.txt
regulatory_exception_for_transfer = False
performance_fee_exception = False
non_intentional_relative_trading = False
delegated_investment_contract_transfer = False
investment_decision_has_reasonable_basis = False
investment_decision_based_on_analysis = False
monthly_review_submitted = False
execution_recorded = False
meets_diversification_ratio_requirements = True
internal_control_system_executed = False
control_operation_recorded = False
reported_trading_to_fund_company = False
related_persons_trading_restriction = True
engaged_in_restricted_stock_and_derivative_trading = False
internal_control_reviewed = False
profit_loss_sharing_agreement = False
record_retention_period_months = 0
self_or_other_fund_relative_trading = False
internal_control_executed = False
reasonable_explanation_provided = True
internal_control_system_established = False
damaging_client_interests_trading = False
confidentiality_compliance = True
complies_with_law = True
internal_control_written = True
investment_decision_recorded = False
serious_violation_of_laws = False
internal_control_compliance = False
internal_control_deficiencies_corrected = True
prohibited_behaviors_violated = False
violating_diversification_ratio_rules = False
operating_branch_without_approval = False
keeps_beneficiary_personal_data_secret = True
violating_investment_limit_rules = False
using_client_account_for_self_or_others = False
compensation_responsibility = True
meets_personnel_qualification_and_behavior_rules = True
annual_audit_plan_executed = True
prohibited_personnel_behaviors_violated = False
illegal_personnel_behavior = False
violating_investment_decision_rules = False
investment_diversification_compliance = True
delegated_investment_decision_compliance = False
violating_investment_scope_rules = False
internal_control_deficiencies = False
engaged_in_prohibited_acts = False
operating_without_approval = False
fiduciary_duty_compliance = True
keeps_other_related_data_secret = True
keeps_transaction_data_secret = True
illegal_business_operation = False
other_necessary_special_audit = False
annual_audit_plan_reported = True
internal_audit_staff_adequate = True
related_persons_trading_declaration_compliance = False
internal_control_deficiencies_reported = True
violating_behavior_restrictions = False
unauthorized_order_account_transfer = False
insider_trading_for_others = False
personnel_qualification_compliance = True
external_financial_reporting_false = False
personnel_violated_law_affecting_business = False
internal_control_self_assessed = True
acts_with_diligence_and_loyalty = True
violating_prohibition_rules = False
complies_with_orders_and_contracts = True
major_fraud_or_suspected_fraud = False
penalty = False
other_behaviors_affecting_business_or_client_rights = False
acts_in_good_faith = True
operating_without_business_license = False